c Reduced graph for GEOM50a_3 generated by Cyril Grelier
p edge 38 173
v 1 10
v 2 10
v 3 10
v 4 10
v 5 10
v 6 9
v 7 9
v 8 9
v 9 9
v 10 9
v 11 9
v 12 9
v 13 9
v 14 9
v 15 8
v 16 8
v 17 8
v 18 8
v 19 8
v 20 7
v 21 7
v 22 7
v 23 6
v 24 6
v 25 6
v 26 6
v 27 5
v 28 5
v 29 5
v 30 5
v 31 4
v 32 4
v 33 4
v 34 3
v 35 3
v 36 3
v 37 2
v 38 1
e 1 2
e 1 4
e 1 6
e 1 7
e 1 8
e 1 15
e 1 16
e 1 23
e 1 25
e 1 27
e 1 33
e 1 34
e 1 35
e 1 37
e 2 4
e 2 7
e 2 15
e 2 16
e 2 23
e 2 26
e 2 27
e 2 34
e 2 37
e 3 5
e 3 13
e 3 14
e 3 18
e 3 19
e 3 22
e 4 23
e 4 26
e 4 27
e 4 37
e 5 11
e 5 12
e 5 18
e 5 24
e 6 7
e 6 8
e 6 10
e 6 15
e 6 16
e 6 21
e 6 23
e 6 25
e 6 27
e 6 33
e 6 34
e 6 35
e 6 37
e 7 8
e 7 15
e 7 16
e 7 23
e 7 25
e 7 27
e 7 33
e 7 34
e 7 35
e 7 37
e 8 15
e 8 21
e 8 25
e 8 33
e 8 34
e 8 35
e 9 17
e 9 20
e 9 28
e 9 29
e 9 30
e 9 31
e 9 32
e 9 36
e 9 38
e 10 15
e 10 16
e 10 21
e 10 26
e 10 27
e 10 37
e 11 12
e 11 18
e 11 24
e 11 28
e 11 29
e 11 36
e 12 18
e 12 24
e 12 28
e 13 14
e 13 19
e 13 22
e 14 18
e 14 22
e 15 16
e 15 21
e 15 23
e 15 25
e 15 27
e 15 33
e 15 34
e 15 35
e 15 37
e 16 21
e 16 23
e 16 27
e 16 35
e 16 37
e 17 20
e 17 24
e 17 28
e 17 29
e 17 30
e 17 31
e 17 32
e 17 36
e 17 38
e 18 22
e 19 22
e 19 23
e 20 24
e 20 28
e 20 29
e 20 30
e 20 31
e 20 32
e 20 36
e 20 38
e 21 27
e 21 35
e 21 37
e 23 27
e 23 34
e 23 35
e 23 37
e 24 28
e 24 29
e 24 36
e 24 38
e 25 33
e 25 34
e 25 35
e 26 27
e 26 30
e 26 37
e 27 34
e 27 37
e 28 29
e 28 30
e 28 31
e 28 32
e 28 36
e 28 38
e 29 31
e 29 32
e 29 36
e 29 38
e 30 31
e 30 32
e 30 36
e 30 38
e 31 32
e 31 36
e 31 38
e 32 36
e 32 38
e 33 34
e 33 35
e 34 35
e 34 37
e 35 37
e 36 38
